195
0 136 127 137 59 49 83 53 130 36 
146 88 188 52 120 101 43 41 2 90 
124 126 58 81 169 8 82 79 148 40 
98 186 47 25 106 24 151 75 189 91 
50 116 173 112 4 119 113 85 128 78 
66 74 139 111 68 93 122 15 63 144 
103 7 129 192 167 48 35 95 150 161 
42 155 96 123 138 164 109 177 157 12 
104 92 190 17 65 142 69 118 100 22 
108 54 71 62 28 3 187 105 121 44 
64 39 191 6 29 10 51 183 182 77 
149 56 20 163 5 80 14 67 156 1 
152 158 194 89 94 72 153 178 176 9 
102 97 46 87 37 165 11 31 84 26 
110 174 16 132 133 38 61 27 73 45 
184 135 115 180 134 99 76 181 141 34 
145 170 18 154 23 21 114 147 159 70 
117 185 125 179 193 172 166 86 107 143 
60 162 13 30 160 33 57 55 140 171 
19 168 32 175 131 
